10	6	3.3
2 3 1 2 5 9 6 6 3 2 8 3 5 6 9
2 5 1 9 2 5 3 9 4 3 5 9 3 2 9 3 5 4 1
2 4 2 7 3 8 4 8 6 9 3 1 3 3 1 4 6
2 4 1 3 4 7 5 2 6 7 1 4 1
2 6 1 1 2 5 3 6 4 3 5 5 6 4 3 1 5 2 4 5 4
2 1 6 5 4 1 6 3 4 5 9 6 1
2 4 2 9 4 3 5 6 6 3 4 3 6 4 1 5 2 6 1
2 2 1 6 6 1 2 2 6 5 7
2 5 1 9 2 6 3 2 5 2 6 4 4 2 6 4 4 5 6 6 8
2 1 5 9 4 1 8 4 6 5 8 6 6
